\ENCODING=ISO-8859-1
\Problem name: problem3

Minimize
 obj: 2.1 x1 + 2.1 x2 + 4.18 x3 + 2.04 x4 + 0.6 x5
Subject To
 r1: x9 >= 20000
 r2: 0.15 x1 + 0.2 x2 - x3 >= 0
 r3: x10 >= 40000
 r4: - 0.85 x3 + x6 <= 0
 r5: - x8 + x14 + x17 <= 0
 r6: 0.45 x5 - x8 >= 0
 r7: 0.15 x1 + 0.1 x2 - x5 >= 0
 r8: x11 >= 30000
 r9: x7 - x15 -x18 >= 0
 r10: 0.35 x5 - x7 >= 0
 r11: x4 - x16 - x19 >= 0
 r12: 0.4 x1 + 0.25 x2 - x4 >= 0
 r13: x12 >= 42000
 r14: 6 x6 + 26 x13 - 20 x14 >= 0
 r15: - 10.1 x6 + 47.3 x13 - 8.6 x14 <= 0
 r16: - 14 x6 + 88 x13 -5 x14 >= 0
 r17: 0.71 x15 - 0.02 x16 + 0.07 x17 <= 0
 r18: 0.03 x1 + 0.05 x2 + 0.15 x3 -x9 - x13 >= 0
 r19: x6 - x10 + x13 + x14 >= 0
 r20: - x11 + x15 + x16 + x17 >= 0
 r21: - x12 + x18 + x19 >= 0
Bounds
 0 <= x1 <= 250000
 0 <= x2 <= 500000
 0 <= x3 <= 30000
 0 <= x4 <= 40000
 0 <= x5 <= 50000
End
